p td 60 90
0 31
0 8
0 54
1 53
1 54
1 59
2 52
3 44
4 6
4 52
4 23
4 10
4 16
5 36
5 42
5 50
5 22
6 27
6 40
7 13
7 29
7 42
7 20
8 19
8 47
8 41
8 26
9 38
9 57
10 44
10 24
10 34
11 53
11 16
11 15
11 47
11 25
12 38
12 55
12 26
12 54
13 55
13 46
13 37
14 56
16 40
16 24
16 35
17 42
18 20
19 58
19 41
20 42
20 49
20 44
21 54
21 29
23 38
23 31
23 57
24 51
24 25
24 41
25 29
25 36
25 37
26 52
26 49
26 55
26 30
27 46
27 29
29 35
30 44
31 44
31 50
33 42
33 49
35 38
36 42
38 58
40 58
42 47
43 52
44 55
44 57
46 51
46 59
50 52
50 59
